10	5
0	6	2	3	5	1	10	4
1	1	8
2	3	8	9	6
3	2	9	6
4	2	8	9
5	1	7
6	1	11
7	1	11
8	1	11
9	1	11
10	1	11
11	0
0	0	0	0	0	0	0
1	9	0	5	0	0	0
2	1	0	4	2	3	1
3	4	1	0	0	0	0
4	10	0	0	1	2	0
5	8	2	3	0	5	2
6	5	1	0	3	4	0
7	5	0	3	3	0	0
8	3	5	2	0	1	0
9	9	0	0	0	3	5
10	3	0	3	4	0	2
11	0	0	0	0	0	0
5	5	5	5	5
